p edge 400 1197
1 2
1 303
1 146
2 380
2 3
2 293
3 400
3 144
3 4
4 5
4 33
4 396
5 242
5 55
5 6
6 7
6 373
6 262
7 164
7 8
7 291
8 45
8 252
8 9
9 57
9 10
9 238
10 359
10 349
10 11
11 244
11 266
11 12
12 13
12 268
12 152
13 179
13 357
13 14
14 15
14 384
14 28
15 302
15 16
15 334
16 17
16 309
16 326
17 313
17 287
17 18
18 395
18 346
18 19
19 136
19 20
19 217
20 55
20 316
20 21
21 374
21 142
21 22
22 25
22 23
22 389
23 281
23 354
23 24
24 362
24 370
24 25
25 32
25 284
25 26
26 389
26 263
26 27
27 196
27 322
27 28
28 203
28 79
28 29
29 30
29 338
29 269
30 31
30 103
30 55
31 32
31 211
31 396
32 69
32 121
32 33
33 34
33 385
33 123
34 190
34 35
34 137
35 345
35 309
35 36
36 37
36 13
36 45
37 170
37 38
37 113
38 361
38 39
38 44
39 40
39 219
39 132
40 174
40 351
40 41
41 199
41 134
41 42
42 183
42 43
42 315
43 44
43 274
43 100
44 45
44 346
44 212
45 17
45 112
45 46
46 47
46 345
46 290
47 361
47 48
47 234
48 49
48 203
48 369
49 50
49 126
49 396
50 377
50 51
50 116
51 235
51 125
51 52
52 365
52 53
52 244
53 79
53 54
53 385
54 233
54 142
54 55
55 142
55 72
55 56
56 57
56 336
56 137
57 331
57 251
57 58
58 148
58 113
58 59
59 290
59 60
59 274
60 25
60 305
60 61
61 62
61 22
62 130
62 319
62 63
63 64
63 164
63 124
64 398
64 311
64 65
65 77
65 54
65 66
66 25
66 67
66 286
67 325
67 327
67 68
68 75
68 69
68 223
69 210
69 201
69 70
70 71
70 396
70 77
71 72
71 12
71 15
72 91
72 223
72 73
73 309
73 74
73 137
74 89
74 348
74 75
75 83
75 339
75 76
76 8
76 397
76 77
77 78
77 309
77 143
78 175
78 126
78 79
79 80
79 30
79 330
80 273
80 153
80 81
81 361
81 82
81 135
82 105
82 112
82 83
83 84
83 329
83 36
84 81
84 85
84 110
85 213
85 290
85 86
86 112
86 131
86 87
87 226
87 194
87 88
88 367
88 305
88 89
89 90
89 143
89 150
90 91
90 60
90 156
91 92
91 300
91 225
92 174
92 350
92 93
93 40
93 348
93 94
94 7
94 79
94 95
95 335
95 96
95 63
96 76
96 168
96 97
97 240
97 98
97 157
98 99
98 214
98 285
99 100
99 2
99 38
100 306
100 101
100 30
101 102
101 178
101 355
102 103
102 9
102 334
103 84
103 140
103 104
104 105
104 82
104 67
105 106
105 388
105 68
106 107
106 288
106 290
107 108
107 11
107 178
108 62
108 109
108 235
109 110
109 74
109 364
110 46
110 111
110 270
111 89
111 309
111 112
112 166
112 113
112 101
113 114
113 55
113 16
114 287
114 31
114 115
115 116
115 366
115 250
116 117
116 383
116 366
117 372
117 178
117 118
118 29
118 50
118 119
119 379
119 120
119 111
120 48
120 267
120 121
121 272
121 310
121 122
122 278
122 231
122 123
123 259
123 137
123 124
124 125
124 198
124 350
125 126
125 375
125 153
126 213
126 80
126 127
127 305
127 244
127 128
128 268
128 117
128 129
129 18
129 130
129 253
130 250
130 122
130 131
131 132
131 320
131 213
132 179
132 133
132 285
133 134
133 321
133 392
134 214
134 135
134 58
135 152
135 136
135 306
136 137
136 61
136 25
137 138
137 148
137 145
138 197
138 139
138 116
139 159
139 70
139 140
140 141
140 132
140 358
141 368
141 344
141 142
142 13
142 143
142 91
143 144
143 288
143 233
144 123
144 396
144 145
145 354
145 188
145 146
146 355
146 34
146 147
147 148
147 139
147 204
148 149
148 358
148 341
149 150
149 267
149 372
150 120
150 104
150 151
151 152
151 176
151 132
152 231
152 386
152 153
153 146
153 372
153 154
154 155
154 273
154 212
155 64
155 156
155 363
156 157
156 234
156 293
157 394
157 354
157 158
158 49
158 159
158 5
159 160
159 282
159 358
160 161
160 176
160 186
161 260
161 181
161 162
162 169
162 163
162 69
163 154
163 164
163 233
164 299
164 165
164 367
165 135
165 166
165 26
166 141
166 167
166 102
167 168
167 291
167 143
168 384
168 169
168 227
169 23
169 13
169 170
170 318
170 49
170 171
171 172
171 81
171 314
172 173
172 15
172 336
173 161
173 41
173 174
174 141
174 109
174 175
175 241
175 9
175 176
176 366
176 382
176 177
177 178
177 391
177 18
178 13
178 179
178 356
179 217
179 180
179 161
180 59
180 181
180 74
181 182
181 268
181 177
182 183
182 336
182 20
183 263
183 35
183 184
184 389
184 360
184 185
185 186
185 399
185 208
186 296
186 31
186 187
187 173
187 188
187 87
188 138
188 189
188 114
189 190
189 251
189 284
190 124
190 191
190 280
191 340
191 282
191 192
192 329
192 201
192 193
193 194
193 4
193 47
194 195
194 14
194 322
195 196
195 58
195 92
196 150
196 34
196 197
197 198
197 138
197 42
198 199
198 311
198 70
199 285
199 200
199 327
200 331
200 201
200 234
201 154
201 202
201 269
202 203
202 104
202 292
203 369
203 204
203 211
204 205
204 34
204 148
205 206
205 276
205 97
206 121
206 207
206 103
207 208
207 385
207 77
208 209
208 62
208 50
209 210
209 60
209 145
210 205
210 211
210 326
211 212
211 387
211 71
212 213
212 129
212 370
213 314
213 285
213 214
214 215
214 30
214 15
215 216
215 8
215 125
216 49
216 125
216 217
217 218
217 180
217 165
218 219
218 230
218 387
219 220
219 120
219 157
220 4
220 117
220 221
221 40
221 33
221 222
222 223
222 147
222 110
223 334
223 224
223 134
224 51
224 225
224 211
225 399
225 183
225 226
226 157
226 99
226 227
227 279
227 149
227 228
228 229
228 163
228 286
229 2
229 230
229 265
230 231
230 290
230 320
231 255
231 232
231 344
232 76
232 233
232 162
233 234
233 82
233 210
234 68
234 235
234 246
235 62
235 135
235 236
236 208
236 390
236 237
237 315
237 238
237 400
238 239
238 174
238 95
239 240
239 2
239 105
240 241
240 89
240 49
241 242
241 387
241 399
242 243
242 109
242 323
243 244
243 71
244 245
244 122
244 400
245 115
245 308
245 246
246 247
246 35
246 294
247 105
247 248
247 257
248 175
248 195
248 249
249 355
249 239
249 250
250 83
250 251
251 215
251 252
251 316
252 253
252 327
252 295
253 254
253 41
253 132
254 255
254 259
254 68
255 256
255 115
255 3
256 399
256 257
256 278
257 258
257 55
257 264
258 144
258 259
258 360
259 308
259 301
259 260
260 261
260 354
260 169
261 262
261 108
261 33
262 397
262 263
262 179
263 264
263 162
263 118
264 265
264 342
264 3
265 11
265 291
265 266
266 88
266 267
266 358
267 73
267 244
267 268
268 60
268 269
268 71
269 380
269 161
269 270
270 126
270 61
270 271
271 272
271 389
271 321
272 346
272 273
272 322
273 274
273 98
273 164
274 169
274 93
274 275
275 276
275 235
275 304
276 158
276 159
276 277
277 334
277 278
277 170
278 279
278 376
278 192
279 92
279 280
279 388
280 281
280 242
280 138
281 14
281 282
281 179
282 283
282 256
282 220
283 100
283 290
283 284
284 285
284 347
284 53
285 286
285 98
285 212
286 287
286 335
286 40
287 30
287 288
287 103
288 257
288 177
288 289
289 290
289 78
289 199
290 291
290 249
290 14
291 283
291 18
291 292
292 293
292 328
292 66
293 96
293 294
293 10
294 296
294 295
294 331
295 296
295 163
295 87
296 353
296 297
296 371
297 298
297 109
297 212
298 51
298 299
298 150
299 305
299 206
299 300
300 357
300 301
300 368
301 25
301 312
301 302
302 271
302 303
302 251
303 190
303 304
303 202
304 363
304 305
304 101
305 159
305 306
305 54
306 307
306 252
306 4
307 309
307 104
307 308
308 309
308 361
308 37
309 227
309 310
309 389
310 309
310 205
310 311
311 312
311 360
311 280
312 194
312 181
312 313
313 314
313 66
313 198
314 315
314 311
314 69
315 391
315 195
315 316
316 317
316 250
316 346
317 149
317 322
317 318
318 319
318 331
318 43
319 212
319 320
319 383
320 321
320 252
320 324
321 59
321 322
321 152
322 323
322 2
322 218
323 7
323 324
323 166
324 311
324 325
324 389
325 58
325 326
325 294
326 126
326 327
326 267
327 165
327 89
327 328
328 329
328 35
328 268
329 330
329 97
329 154
330 136
330 331
330 360
331 58
331 332
331 293
332 36
332 333
332 340
333 92
333 334
333 255
334 335
334 96
334 194
335 31
335 336
335 358
336 337
336 281
336 286
337 338
337 374
337 307
338 107
338 144
338 339
339 222
339 216
339 340
340 341
340 182
340 209
341 259
341 342
341 246
342 344
342 236
342 343
343 329
343 169
343 344
344 370
344 345
344 333
345 263
345 237
345 346
346 372
346 292
346 347
347 76
347 348
347 213
348 219
348 364
348 349
349 39
349 350
349 297
350 351
350 354
350 146
351 189
351 155
351 352
352 160
352 238
352 353
353 354
353 294
353 381
354 101
354 355
354 36
355 329
355 218
355 356
356 379
356 168
356 357
357 137
357 358
357 96
358 359
358 142
358 102
359 32
359 304
359 360
360 361
360 83
360 375
361 362
361 294
361 100
362 33
362 73
362 363
363 70
363 364
363 285
364 365
364 130
364 79
365 141
365 267
365 366
366 266
366 91
366 367
367 63
367 368
367 17
368 265
368 369
368 104
369 385
369 172
369 370
370 211
370 371
370 97
371 206
371 339
371 372
372 79
372 373
372 131
373 212
373 374
373 286
374 159
374 327
374 375
375 395
375 376
375 310
376 377
376 104
376 228
377 242
377 378
377 178
378 85
378 379
378 156
379 153
379 341
379 380
380 381
380 65
380 279
381 246
381 382
381 79
382 383
382 100
382 329
383 384
383 60
383 104
384 385
384 309
384 316
385 29
385 178
385 386
386 390
386 308
386 387
387 61
387 225
387 388
388 364
388 154
388 389
389 178
389 390
389 246
390 60
390 277
390 391
391 392
391 332
391 124
392 312
392 393
392 84
393 215
393 57
393 394
394 132
394 352
394 395
395 12
395 396
395 254
396 36
396 147
396 397
397 394
397 398
397 42
398 16
398 399
398 35
399 400
399 366
399 245
400 392
400 355
400 1
